p cnf 14 53
5 8 -11 0
1 8 -14 0
-1 -5 13 0
3 -7 10 0
6 10 -12 0
-5 -9 -11 0
-3 -4 14 0
8 10 -13 0
-7 8 -12 0
1 7 8 0
7 12 -14 0
-5 7 -13 0
3 6 -7 0
-6 -11 12 0
1 2 9 0
2 4 -11 0
-7 12 -13 0
2 -10 -13 0
2 11 13 0
2 10 -11 0
7 -8 -14 0
-4 -12 -14 0
-9 -12 -13 0
-5 -7 -10 0
-2 -5 12 0
-3 -4 6 0
11 -12 13 0
5 -11 13 0
-6 11 -12 0
-5 -6 13 0
-6 -7 -10 0
-4 11 -12 0
4 -8 -14 0
-1 -5 9 0
-2 -6 -14 0
5 -10 -14 0
-1 -5 14 0
1 -3 6 0
11 -13 -14 0
1 2 -6 0
4 -5 14 0
6 -9 -11 0
-3 4 13 0
-8 11 13 0
3 -12 13 0
-1 5 9 0
-1 -9 -11 0
-1 -3 -10 0
-3 -11 -14 0
5 12 -14 0
3 -10 -12 0
-3 10 -14 0
11 -12 -14 0
